226 177352
1 74 75 76 78 77 73 71 68 67 66 169 168 167 165 164 163 162 161 155 156 157 158 159 160 166 170 172 176 177 178 179 180 181 182 183 188 191 125 124 123 122 121 120 129 133 134 136 135 202 203 204 205 207 208 209 132 130 131 127 128 126 119 110 95 97 89 96 88 98 99 91 100 93 101 102 206 210 211 212 215 216 217 219 220 221 218 214 213 201 200 199 198 197 196 195 194 193 192 143 142 141 139 145 147 149 148 150 175 174 173 171 151 152 153 154 41 40 39 42 222 223 224 225 226 116 104 70 69 13 12 11 9 10 14 15 17 65 60 59 58 57 56 55 54 53 52 51 50 22 23 24 25 26 27 28 49 48 33 32 31 36 45 46 47 61 62 63 64 103 105 111 112 113 114 106 115 107 108 109 117 118 190 189 187 186 185 184 140 138 146 144 137 94 92 90 87 43 44 37 38 35 34 30 29 21 20 19 18 16 72 86 85 84 83 82 81 80 79 8 7 6 5 4 3 2 
